c uprop, v00.0, 
c reading from data/prog124.c.cnf
c done reading: 0.002608
p cnf 116 484
-60 -79 0
60 79 0
-65 -68 0
65 68 0
-70 -74 0
70 74 0
-63 -76 0
63 76 0
-72 -81 0
72 81 0
-83 -85 0
83 85 0
-60 87 0
60 -87 0
57 -60 -65 0
-57 60 65 0
-57 65 0
-57 60 0
-56 -57 65 0
-56 -57 60 0
-56 -57 0
56 57 -65 0
56 57 -60 0
-56 60 65 0
55 -65 -70 0
55 -57 -70 0
55 -57 -65 0
-55 65 70 0
-55 57 70 0
-55 57 65 0
-54 -55 70 0
-54 -55 65 0
-54 -55 57 0
54 55 -70 0
54 55 -65 0
54 55 -57 0
54 -57 -65 -70 0
-54 57 65 70 0
53 -70 -76 0
53 -55 -76 0
53 -55 -70 0
-53 70 76 0
-53 55 76 0
-53 55 70 0
-52 -53 76 0
-52 -53 70 0
-52 -53 55 0
52 53 -76 0
52 53 -70 0
52 53 -55 0
52 -55 -70 -76 0
-52 55 70 76 0
51 -76 -81 0
51 -53 -81 0
51 -53 -76 0
-51 76 81 0
-51 53 81 0
-51 53 76 0
-50 -51 81 0
-50 -51 76 0
-50 -51 53 0
50 51 -81 0
50 51 -76 0
50 51 -53 0
50 -53 -76 -81 0
-50 53 76 81 0
49 -81 -85 0
49 -51 -85 0
49 -51 -81 0
-49 81 85 0
-49 51 85 0
-49 51 81 0
-48 -49 85 0
-48 -49 81 0
-48 -49 51 0
48 49 -85 0
48 49 -81 0
48 49 -51 0
48 -51 -81 -85 0
-48 51 81 85 0
-58 85 0
49 -58 0
-49 58 -85 0
-49 -61 -85 0
49 -61 85 0
49 61 -85 0
-49 61 85 0
56 -66 0
-56 66 0
-56 -71 0
56 71 0
-54 -66 77 0
54 -77 0
54 66 -77 0
66 -77 0
54 -77 -82 0
-77 -82 0
66 -77 -82 0
-54 77 82 0
-66 77 82 0
54 66 -82 0
-52 -60 86 0
-52 -77 86 0
-60 -77 86 0
52 60 -86 0
52 77 -86 0
60 77 -86 0
52 -86 -88 0
60 -86 -88 0
77 -86 -88 0
-52 86 88 0
-60 86 88 0
-77 86 88 0
-52 -60 -77 88 0
52 60 77 -88 0
-50 -65 89 0
-50 -86 89 0
-65 -86 89 0
50 65 -89 0
50 86 -89 0
65 86 -89 0
50 -89 -90 0
65 -89 -90 0
86 -89 -90 0
-50 89 90 0
-65 89 90 0
-86 89 90 0
-50 -65 -86 90 0
50 65 86 -90 0
-48 -70 91 0
-48 -89 91 0
-70 -89 91 0
48 70 -91 0
48 89 -91 0
70 89 -91 0
48 -91 -92 0
70 -91 -92 0
89 -91 -92 0
-48 91 92 0
-70 91 92 0
-89 91 92 0
-48 -70 -89 92 0
48 70 89 -92 0
-61 -76 93 0
-61 -91 93 0
-76 -91 93 0
61 76 -93 0
61 91 -93 0
76 91 -93 0
61 -93 -94 0
76 -93 -94 0
91 -93 -94 0
-61 93 94 0
-76 93 94 0
-91 93 94 0
-61 -76 -91 94 0
61 76 91 -94 0
-58 -81 95 0
-58 -93 95 0
-81 -93 95 0
58 81 -95 0
58 93 -95 0
81 93 -95 0
58 -95 -96 0
81 -95 -96 0
93 -95 -96 0
-58 95 96 0
-81 95 96 0
-93 95 96 0
-58 -81 -93 96 0
58 81 93 -96 0
85 -97 0
95 -97 0
-85 -95 97 0
-85 -95 -98 0
85 95 -98 0
-85 95 98 0
85 -95 98 0
88 -99 0
-88 99 0
-88 -100 0
88 100 0
-90 -99 101 0
90 -101 0
90 99 -101 0
99 -101 0
90 -101 -102 0
-101 -102 0
99 -101 -102 0
-90 101 102 0
-99 101 102 0
90 99 -102 0
-60 -92 103 0
-92 -101 103 0
-60 -101 103 0
60 92 -103 0
92 101 -103 0
60 101 -103 0
92 -103 -104 0
60 -103 -104 0
101 -103 -104 0
-92 103 104 0
-60 103 104 0
-101 103 104 0
-60 -92 -101 104 0
60 92 101 -104 0
-65 -94 105 0
-94 -103 105 0
-65 -103 105 0
65 94 -105 0
94 103 -105 0
65 103 -105 0
94 -105 -106 0
65 -105 -106 0
103 -105 -106 0
-94 105 106 0
-65 105 106 0
-103 105 106 0
-65 -94 -103 106 0
65 94 103 -106 0
-70 -96 107 0
-96 -105 107 0
-70 -105 107 0
70 96 -107 0
96 105 -107 0
70 105 -107 0
96 -107 -108 0
70 -107 -108 0
105 -107 -108 0
-96 107 108 0
-70 107 108 0
-105 107 108 0
-70 -96 -105 108 0
70 96 105 -108 0
-76 -98 109 0
-98 -107 109 0
-76 -107 109 0
76 98 -109 0
98 107 -109 0
76 107 -109 0
98 -109 -110 0
76 -109 -110 0
107 -109 -110 0
-98 109 110 0
-76 109 110 0
-107 109 110 0
-76 -98 -107 110 0
76 98 107 -110 0
-81 -97 111 0
-97 -109 111 0
-81 -109 111 0
81 97 -111 0
97 109 -111 0
81 109 -111 0
97 -111 -112 0
81 -111 -112 0
109 -111 -112 0
-97 111 112 0
-81 111 112 0
-109 111 112 0
-81 -97 -109 112 0
81 97 109 -112 0
85 -113 0
111 -113 0
-85 -111 113 0
-85 -111 -114 0
85 111 -114 0
-85 111 114 0
85 -111 114 0
-87 -115 0
87 115 0
-71 -116 0
71 116 0
-47 -82 0
47 82 0
-46 -100 0
46 100 0
-45 -102 0
45 102 0
-44 -104 0
44 104 0
-43 -106 0
43 106 0
-42 -108 0
42 108 0
-41 -110 0
41 110 0
-40 -112 0
40 112 0
-39 -114 0
39 114 0
-38 -113 0
38 113 0
-35 -37 0
-34 -35 0
34 35 37 0
-32 34 37 0
-32 -34 -37 0
32 34 -37 0
32 -34 37 0
-31 35 0
-30 -31 0
30 31 -35 0
-28 30 -35 0
-28 -30 35 0
28 30 35 0
28 -30 -35 0
-27 31 0
-26 -27 0
26 27 -31 0
-24 26 -31 0
-24 -26 31 0
24 26 31 0
24 -26 -31 0
-23 27 0
-22 -23 0
22 23 -27 0
-20 22 -27 0
-20 -22 27 0
20 22 27 0
20 -22 -27 0
-19 23 0
-18 -19 0
18 19 -23 0
18 -23 -59 0
-18 23 -59 0
18 23 59 0
-18 -23 59 0
19 -64 0
-16 -64 0
16 -19 64 0
16 -19 -69 0
-16 19 -69 0
16 19 69 0
-16 -19 69 0
64 -75 0
-14 -75 0
14 -64 75 0
14 -64 -80 0
-14 64 -80 0
14 64 80 0
-14 -64 80 0
-37 -84 0
-34 -84 0
34 37 84 0
34 -36 37 0
-34 -36 -37 0
34 36 -37 0
-34 36 37 0
-33 84 0
-30 -33 0
30 33 -84 0
-29 30 -84 0
-29 -30 84 0
29 30 84 0
29 -30 -84 0
-25 33 0
-25 -26 0
25 26 -33 0
-21 26 -33 0
-21 -26 33 0
21 26 33 0
21 -26 -33 0
-17 25 0
-17 -22 0
17 22 -25 0
-15 22 -25 0
-15 -22 25 0
15 22 25 0
15 -22 -25 0
-13 17 0
-13 -18 0
13 -17 18 0
-12 -17 18 0
-12 17 -18 0
12 17 18 0
12 -17 -18 0
-11 13 0
-11 -16 0
11 -13 16 0
-10 -13 16 0
-10 13 -16 0
10 13 16 0
10 -13 -16 0
-9 11 0
-9 -14 0
9 -11 14 0
-8 -11 14 0
-8 11 -14 0
8 11 14 0
8 -11 -14 0
-7 87 0
-7 37 0
7 -37 -87 0
-37 -87 0
37 87 0
6 -34 -71 0
6 -7 -71 0
6 -7 -34 0
-6 34 71 0
-6 7 71 0
-6 7 34 0
6 -71 0
6 -34 0
6 -7 0
-7 -34 -71 0
5 -30 -82 0
5 -6 -82 0
5 -6 -30 0
-5 30 82 0
-5 6 82 0
-5 6 30 0
5 -82 0
5 -30 0
5 -6 0
-6 -30 -82 0
4 -26 -100 0
4 -5 -100 0
4 -5 -26 0
-4 26 100 0
-4 5 100 0
-4 5 26 0
-4 100 0
-4 26 0
-4 5 0
5 26 100 0
3 -22 -102 0
3 -4 -102 0
3 -4 -22 0
-3 22 102 0
-3 4 102 0
-3 4 22 0
3 -102 0
3 -22 0
3 -4 0
-4 -22 -102 0
2 -18 -104 0
2 -3 -104 0
2 -3 -18 0
-2 18 104 0
-2 3 104 0
-2 3 18 0
-2 104 0
-2 18 0
-2 3 0
3 18 104 0
1 -16 -106 0
1 -2 -106 0
1 -2 -16 0
-1 16 106 0
-1 2 106 0
-1 2 16 0
1 -106 0
1 -16 0
1 -2 0
-2 -16 -106 0
-14 78 -108 0
-1 78 -108 0
-1 -14 78 0
14 -78 108 0
1 -78 108 0
1 14 -78 0
78 -108 0
-14 78 0
-1 78 0
-1 -14 -108 0
-67 110 0
-67 78 0
67 -78 -110 0
78 -110 0
-78 110 0
-73 112 0
67 -73 0
-67 73 -112 0
67 -112 0
-67 112 0
-62 114 0
-62 73 0
62 -73 -114 0
73 -114 0
-73 114 0
-62 -113 0
62 -113 0
-62 113 0
